Route #1: 98 91 81 86 136 116 128 119 68 83 104 89 56
Route #2: 100 67 42 59 134 40 37 17 47 11 101 33 135 102
Route #3: 60 14 63 28 103 21 18 55 46 43 77 106 82 105
Route #4: 76 138 122 111 75 133 107 132 93 130 127 64 1 71
Route #5: 54 79 121 20 45 109 70 62 4 23 26 124 88
Route #6: 9 112 22 108 94 69 38 131 50 31 97 74 10
Route #7: 73 120 78 92 41 80 34 115 27 123 13 58 35 110
Route #8: 3 7 30 84 8 15 65 48 61 19 66 44 57 29
Route #9: 51 72 117 12 90 113 6 5 96 53 129 49 2 99
Route #10: 32 118 85 24 114 137 25 125 36 126 95 52 87 39
Route #11: 16
Cost 16330
